(set-info :source |printed by MathSAT|)
(declare-fun param_e01 () Bool)
(declare-fun call_rtp.ite31 () Int)
(declare-fun param_e05 () Bool)
(declare-fun call_rtp.flby4 () Int)
(declare-fun call_rtp.ite5 () Int)
(declare-fun call_rtp.ite47 () Int)
(declare-fun _X1_ () Int)
(declare-fun call_rtp.ite41 () Int)
(declare-fun param_e08 () Bool)
(declare-fun call_rtp.ite42 () Int)
(declare-fun call_rtp.ite29 () Int)
(declare-fun param_e02 () Bool)
(declare-fun param_e03 () Bool)
(declare-fun call_rtp.ite46 () Int)
(declare-fun call_rtp.ite23 () Int)
(declare-fun param_e12 () Bool)
(declare-fun call_rtp.ite7 () Int)
(declare-fun call_rtp.ite () Bool)
(declare-fun call_rtp._X9_ () Int)
(declare-fun call_rtp.ite48 () Int)
(declare-fun call_rtp.flby7 () Int)
(declare-fun call_rtp.ite3 () Int)
(declare-fun call_rtp.ite24 () Int)
(declare-fun erreur () Bool)
(declare-fun call_rtp.ite9 () Int)
(declare-fun call_rtp.ite44 () Int)
(declare-fun param_e06 () Bool)
(declare-fun call_rtp._X3_ () Int)
(declare-fun call_rtp.ite15 () Int)
(declare-fun call_rtp.ite14 () Int)
(declare-fun call_rtp.ite33 () Int)
(declare-fun _X6_ () Int)
(declare-fun _X4_ () Int)
(declare-fun _X8_ () Int)
(declare-fun env () Bool)
(declare-fun call_rtp.ite18 () Int)
(declare-fun call_rtp.ite17 () Int)
(declare-fun call_rtp._X6_ () Int)
(declare-fun param_e07 () Bool)
(declare-fun call_rtp.flby8 () Int)
(declare-fun call_rtp._X1_ () Int)
(declare-fun call_rtp.ite34 () Int)
(declare-fun _X7_ () Int)
(declare-fun call_rtp.flby2 () Int)
(declare-fun call_rtp.ite35 () Int)
(declare-fun param_e10 () Bool)
(declare-fun _X2_ () Int)
(declare-fun call_rtp.ite28 () Int)
(declare-fun call_rtp.ite26 () Int)
(declare-fun call_rtp.ite22 () Int)
(declare-fun call_rtp.ite38 () Int)
(declare-fun _X5_ () Int)
(declare-fun call_rtp.ite20 () Int)
(declare-fun call_excludes12.excludes () Bool)
(declare-fun call_rtp.erreur () Bool)
(declare-fun call_rtp.ite16 () Int)
(declare-fun call_rtp.ite2 () Int)
(declare-fun call_rtp.flby5 () Int)
(declare-fun call_rtp.ite11 () Int)
(declare-fun param_e04 () Bool)
(declare-fun call_rtp.ite49 () Int)
(declare-fun call_rtp.ite10 () Int)
(declare-fun call_Sofar.flby () Bool)
(declare-fun call_rtp._X4_ () Int)
(declare-fun call_rtp.flby6 () Int)
(declare-fun call_rtp.ite6 () Int)
(declare-fun param_e09 () Bool)
(declare-fun call_rtp.ite4 () Int)
(declare-fun call_rtp.ite36 () Int)
(declare-fun call_rtp._X8_ () Int)
(declare-fun call_rtp.flby () Int)
(declare-fun call_rtp.ite45 () Int)
(declare-fun call_rtp.ite40 () Int)
(declare-fun call_rtp.ite8 () Int)
(declare-fun call_rtp.ite39 () Int)
(declare-fun call_rtp.flby3 () Int)
(declare-fun call_rtp.ite13 () Int)
(declare-fun call_rtp._X7_ () Int)
(declare-fun call_rtp.ite19 () Int)
(declare-fun _X9_ () Int)
(declare-fun call_rtp._X2_ () Int)
(declare-fun call_Sofar.Sofar () Bool)
(declare-fun call_rtp.ite21 () Int)
(declare-fun call_rtp.ite12 () Int)
(declare-fun _OK_ () Bool)
(declare-fun call_rtp.ite43 () Int)
(declare-fun _X3_ () Int)
(declare-fun param_e11 () Bool)
(declare-fun call_rtp.ite37 () Int)
(declare-fun call_rtp.ite27 () Int)
(declare-fun call_rtp.ite25 () Int)
(declare-fun call_rtp.ite30 () Int)
(declare-fun call_rtp.ite32 () Int)
(declare-fun call_rtp.flby9 () Int)
(declare-fun call_rtp._X5_ () Int)
(define-fun .def_1531 () Bool (= call_Sofar.flby call_Sofar.Sofar))
(define-fun .def_1353 () Bool (not param_e02))
(define-fun .def_1177 () Bool (not param_e03))
(define-fun .def_1506 () Bool (and .def_1177 .def_1353))
(define-fun .def_1379 () Bool (not param_e04))
(define-fun .def_1507 () Bool (and .def_1379 .def_1506))
(define-fun .def_1130 () Bool (not param_e05))
(define-fun .def_1508 () Bool (and .def_1130 .def_1507))
(define-fun .def_1124 () Bool (not param_e06))
(define-fun .def_1509 () Bool (and .def_1124 .def_1508))
(define-fun .def_1238 () Bool (not param_e07))
(define-fun .def_1510 () Bool (and .def_1238 .def_1509))
(define-fun .def_1278 () Bool (not param_e08))
(define-fun .def_1511 () Bool (and .def_1278 .def_1510))
(define-fun .def_1137 () Bool (not param_e09))
(define-fun .def_1512 () Bool (and .def_1137 .def_1511))
(define-fun .def_1144 () Bool (not param_e10))
(define-fun .def_1513 () Bool (and .def_1144 .def_1512))
(define-fun .def_1151 () Bool (not param_e11))
(define-fun .def_1514 () Bool (and .def_1151 .def_1513))
(define-fun .def_1165 () Bool (not param_e12))
(define-fun .def_1515 () Bool (and .def_1165 .def_1514))
(define-fun .def_1158 () Bool (not param_e01))
(define-fun .def_1516 () Bool (or .def_1158 .def_1515))
(define-fun .def_1495 () Bool (and param_e01 .def_1353))
(define-fun .def_1496 () Bool (and .def_1177 .def_1495))
(define-fun .def_1497 () Bool (and .def_1379 .def_1496))
(define-fun .def_1498 () Bool (and .def_1130 .def_1497))
(define-fun .def_1499 () Bool (and .def_1124 .def_1498))
(define-fun .def_1500 () Bool (and .def_1238 .def_1499))
(define-fun .def_1501 () Bool (and .def_1278 .def_1500))
(define-fun .def_1502 () Bool (and .def_1137 .def_1501))
(define-fun .def_1503 () Bool (and .def_1144 .def_1502))
(define-fun .def_1504 () Bool (and .def_1151 .def_1503))
(define-fun .def_1505 () Bool (and .def_1165 .def_1504))
(define-fun .def_1517 () Bool (or .def_1505 .def_1516))
(define-fun .def_1484 () Bool (and .def_1158 param_e02))
(define-fun .def_1485 () Bool (and .def_1177 .def_1484))
(define-fun .def_1486 () Bool (and .def_1379 .def_1485))
(define-fun .def_1487 () Bool (and .def_1130 .def_1486))
(define-fun .def_1488 () Bool (and .def_1124 .def_1487))
(define-fun .def_1489 () Bool (and .def_1238 .def_1488))
(define-fun .def_1490 () Bool (and .def_1278 .def_1489))
(define-fun .def_1491 () Bool (and .def_1137 .def_1490))
(define-fun .def_1492 () Bool (and .def_1144 .def_1491))
(define-fun .def_1493 () Bool (and .def_1151 .def_1492))
(define-fun .def_1494 () Bool (and .def_1165 .def_1493))
(define-fun .def_1518 () Bool (or .def_1494 .def_1517))
(define-fun .def_1419 () Bool (and .def_1158 .def_1353))
(define-fun .def_1474 () Bool (and param_e03 .def_1419))
(define-fun .def_1475 () Bool (and .def_1379 .def_1474))
(define-fun .def_1476 () Bool (and .def_1130 .def_1475))
(define-fun .def_1477 () Bool (and .def_1124 .def_1476))
(define-fun .def_1478 () Bool (and .def_1238 .def_1477))
(define-fun .def_1479 () Bool (and .def_1278 .def_1478))
(define-fun .def_1480 () Bool (and .def_1137 .def_1479))
(define-fun .def_1481 () Bool (and .def_1144 .def_1480))
(define-fun .def_1482 () Bool (and .def_1151 .def_1481))
(define-fun .def_1483 () Bool (and .def_1165 .def_1482))
(define-fun .def_1519 () Bool (or .def_1483 .def_1518))
(define-fun .def_1420 () Bool (and .def_1177 .def_1419))
(define-fun .def_1465 () Bool (and param_e04 .def_1420))
(define-fun .def_1466 () Bool (and .def_1130 .def_1465))
(define-fun .def_1467 () Bool (and .def_1124 .def_1466))
(define-fun .def_1468 () Bool (and .def_1238 .def_1467))
(define-fun .def_1469 () Bool (and .def_1278 .def_1468))
(define-fun .def_1470 () Bool (and .def_1137 .def_1469))
(define-fun .def_1471 () Bool (and .def_1144 .def_1470))
(define-fun .def_1472 () Bool (and .def_1151 .def_1471))
(define-fun .def_1473 () Bool (and .def_1165 .def_1472))
(define-fun .def_1520 () Bool (or .def_1473 .def_1519))
(define-fun .def_1421 () Bool (and .def_1379 .def_1420))
(define-fun .def_1457 () Bool (and param_e05 .def_1421))
(define-fun .def_1458 () Bool (and .def_1124 .def_1457))
(define-fun .def_1459 () Bool (and .def_1238 .def_1458))
(define-fun .def_1460 () Bool (and .def_1278 .def_1459))
(define-fun .def_1461 () Bool (and .def_1137 .def_1460))
(define-fun .def_1462 () Bool (and .def_1144 .def_1461))
(define-fun .def_1463 () Bool (and .def_1151 .def_1462))
(define-fun .def_1464 () Bool (and .def_1165 .def_1463))
(define-fun .def_1521 () Bool (or .def_1464 .def_1520))
(define-fun .def_1422 () Bool (and .def_1130 .def_1421))
(define-fun .def_1450 () Bool (and param_e06 .def_1422))
(define-fun .def_1451 () Bool (and .def_1238 .def_1450))
(define-fun .def_1452 () Bool (and .def_1278 .def_1451))
(define-fun .def_1453 () Bool (and .def_1137 .def_1452))
(define-fun .def_1454 () Bool (and .def_1144 .def_1453))
(define-fun .def_1455 () Bool (and .def_1151 .def_1454))
(define-fun .def_1456 () Bool (and .def_1165 .def_1455))
(define-fun .def_1522 () Bool (or .def_1456 .def_1521))
(define-fun .def_1423 () Bool (and .def_1124 .def_1422))
(define-fun .def_1444 () Bool (and param_e07 .def_1423))
(define-fun .def_1445 () Bool (and .def_1278 .def_1444))
(define-fun .def_1446 () Bool (and .def_1137 .def_1445))
(define-fun .def_1447 () Bool (and .def_1144 .def_1446))
(define-fun .def_1448 () Bool (and .def_1151 .def_1447))
(define-fun .def_1449 () Bool (and .def_1165 .def_1448))
(define-fun .def_1523 () Bool (or .def_1449 .def_1522))
(define-fun .def_1424 () Bool (and .def_1238 .def_1423))
(define-fun .def_1439 () Bool (and param_e08 .def_1424))
(define-fun .def_1440 () Bool (and .def_1137 .def_1439))
(define-fun .def_1441 () Bool (and .def_1144 .def_1440))
(define-fun .def_1442 () Bool (and .def_1151 .def_1441))
(define-fun .def_1443 () Bool (and .def_1165 .def_1442))
(define-fun .def_1524 () Bool (or .def_1443 .def_1523))
(define-fun .def_1425 () Bool (and .def_1278 .def_1424))
(define-fun .def_1435 () Bool (and param_e09 .def_1425))
(define-fun .def_1436 () Bool (and .def_1144 .def_1435))
(define-fun .def_1437 () Bool (and .def_1151 .def_1436))
(define-fun .def_1438 () Bool (and .def_1165 .def_1437))
(define-fun .def_1525 () Bool (or .def_1438 .def_1524))
(define-fun .def_1426 () Bool (and .def_1137 .def_1425))
(define-fun .def_1432 () Bool (and param_e10 .def_1426))
(define-fun .def_1433 () Bool (and .def_1151 .def_1432))
(define-fun .def_1434 () Bool (and .def_1165 .def_1433))
(define-fun .def_1526 () Bool (or .def_1434 .def_1525))
(define-fun .def_1427 () Bool (and .def_1144 .def_1426))
(define-fun .def_1430 () Bool (and param_e11 .def_1427))
(define-fun .def_1431 () Bool (and .def_1165 .def_1430))
(define-fun .def_1527 () Bool (or .def_1431 .def_1526))
(define-fun .def_1428 () Bool (and .def_1151 .def_1427))
(define-fun .def_1429 () Bool (and param_e12 .def_1428))
(define-fun .def_1528 () Bool (or .def_1429 .def_1527))
(define-fun .def_1529 () Bool (= call_excludes12.excludes .def_1528))
(define-fun .def_1417 () Bool (= call_rtp.erreur call_rtp.ite))
(define-fun .def_1415 () Bool (= call_rtp.flby9 call_rtp._X9_))
(define-fun .def_1413 () Bool (= call_rtp.flby8 call_rtp._X8_))
(define-fun .def_1411 () Bool (= call_rtp.flby7 call_rtp._X7_))
(define-fun .def_1409 () Bool (= call_rtp.flby6 call_rtp._X6_))
(define-fun .def_1407 () Bool (= call_rtp.flby5 call_rtp._X5_))
(define-fun .def_1405 () Bool (= call_rtp.flby4 call_rtp._X4_))
(define-fun .def_1403 () Bool (= call_rtp.flby3 call_rtp._X3_))
(define-fun .def_1401 () Bool (= call_rtp.flby2 call_rtp._X2_))
(define-fun .def_1398 () Bool (= call_rtp.flby call_rtp._X1_))
(define-fun .def_1393 () Bool (<= 2 call_rtp._X1_))
(define-fun .def_1395 () Bool (not .def_1393))
(define-fun .def_1396 () Bool (or call_rtp.ite .def_1395))
(define-fun .def_1392 () Bool (not call_rtp.ite))
(define-fun .def_1394 () Bool (or .def_1392 .def_1393))
(define-fun .def_1397 () Bool (and .def_1394 .def_1396))
(define-fun .def_1399 () Bool (and .def_1397 .def_1398))
(define-fun .def_1387 () Bool (= call_rtp.ite22 call_rtp.ite23))
(define-fun .def_1388 () Bool (or param_e04 .def_1387))
(define-fun .def_1384 () Bool (= call_rtp.ite20 call_rtp.ite23))
(define-fun .def_1385 () Bool (or .def_1379 .def_1384))
(define-fun .def_1378 () Bool (= call_rtp.ite18 call_rtp.ite15))
(define-fun .def_1380 () Bool (or .def_1378 .def_1379))
(define-fun .def_1374 () Bool (= call_rtp.ite17 call_rtp.ite18))
(define-fun .def_1376 () Bool (or .def_1374 param_e04))
(define-fun .def_1381 () Bool (and .def_1376 .def_1380))
(define-fun .def_1386 () Bool (and .def_1381 .def_1385))
(define-fun .def_1389 () Bool (and .def_1386 .def_1388))
(define-fun .def_1370 () Bool (= call_rtp.ite19 call_rtp.ite14))
(define-fun .def_1371 () Bool (or .def_1177 .def_1370))
(define-fun .def_1367 () Bool (= call_rtp.ite19 call_rtp.ite18))
(define-fun .def_1368 () Bool (or param_e03 .def_1367))
(define-fun .def_1372 () Bool (and .def_1368 .def_1371))
(define-fun .def_1361 () Bool (= call_rtp.ite12 call_rtp.ite13))
(define-fun .def_1362 () Bool (or param_e02 .def_1361))
(define-fun .def_1358 () Bool (= call_rtp.ite10 call_rtp.ite13))
(define-fun .def_1359 () Bool (or .def_1353 .def_1358))
(define-fun .def_1352 () Bool (= call_rtp.ite8 call_rtp.ite5))
(define-fun .def_1354 () Bool (or .def_1352 .def_1353))
(define-fun .def_1348 () Bool (= call_rtp.ite7 call_rtp.ite8))
(define-fun .def_1350 () Bool (or .def_1348 param_e02))
(define-fun .def_1355 () Bool (and .def_1350 .def_1354))
(define-fun .def_1360 () Bool (and .def_1355 .def_1359))
(define-fun .def_1363 () Bool (and .def_1360 .def_1362))
(define-fun .def_1344 () Bool (= call_rtp.ite9 call_rtp.ite4))
(define-fun .def_1345 () Bool (or .def_1158 .def_1344))
(define-fun .def_1341 () Bool (= call_rtp.ite9 call_rtp.ite8))
(define-fun .def_1342 () Bool (or param_e01 .def_1341))
(define-fun .def_1346 () Bool (and .def_1342 .def_1345))
(define-fun .def_1335 () Bool (= call_rtp.ite46 call_rtp.ite43))
(define-fun .def_1336 () Bool (or .def_1151 .def_1335))
(define-fun .def_1332 () Bool (= call_rtp.ite45 call_rtp.ite46))
(define-fun .def_1333 () Bool (or param_e11 .def_1332))
(define-fun .def_1337 () Bool (and .def_1333 .def_1336))
(define-fun .def_1328 () Bool (= call_rtp.ite47 call_rtp.ite42))
(define-fun .def_1329 () Bool (or .def_1144 .def_1328))
(define-fun .def_1325 () Bool (= call_rtp.ite47 call_rtp.ite46))
(define-fun .def_1326 () Bool (or param_e10 .def_1325))
(define-fun .def_1330 () Bool (and .def_1326 .def_1329))
(define-fun .def_1320 () Bool (= call_rtp.ite39 call_rtp.ite36))
(define-fun .def_1321 () Bool (or .def_1137 .def_1320))
(define-fun .def_1317 () Bool (= call_rtp.ite38 call_rtp.ite39))
(define-fun .def_1318 () Bool (or param_e09 .def_1317))
(define-fun .def_1322 () Bool (and .def_1318 .def_1321))
(define-fun .def_1314 () Bool (= env call_Sofar.Sofar))
(define-fun .def_1311 () Bool (= erreur call_rtp.erreur))
(define-fun .def_1307 () Bool (= _X9_ call_rtp._X9_))
(define-fun .def_1303 () Bool (= _X8_ call_rtp._X8_))
(define-fun .def_1300 () Bool (= _X7_ call_rtp._X7_))
(define-fun .def_1296 () Bool (= _X6_ call_rtp._X6_))
(define-fun .def_1292 () Bool (= _X5_ call_rtp._X5_))
(define-fun .def_1286 () Bool (= call_rtp.ite34 call_rtp.ite35))
(define-fun .def_1287 () Bool (or param_e08 .def_1286))
(define-fun .def_1283 () Bool (= call_rtp.ite32 call_rtp.ite35))
(define-fun .def_1284 () Bool (or .def_1278 .def_1283))
(define-fun .def_1277 () Bool (= call_rtp.ite29 call_rtp.ite26))
(define-fun .def_1279 () Bool (or .def_1277 .def_1278))
(define-fun .def_1273 () Bool (= call_rtp.ite28 call_rtp.ite29))
(define-fun .def_1275 () Bool (or .def_1273 param_e08))
(define-fun .def_1280 () Bool (and .def_1275 .def_1279))
(define-fun .def_1285 () Bool (and .def_1280 .def_1284))
(define-fun .def_1288 () Bool (and .def_1285 .def_1287))
(define-fun .def_1271 () Bool (= _X4_ call_rtp._X4_))
(define-fun .def_1267 () Bool (= _X3_ call_rtp._X3_))
(define-fun .def_1263 () Bool (= _X2_ call_rtp._X2_))
(define-fun .def_1259 () Bool (= _X1_ call_rtp._X1_))
(define-fun .def_1253 () Bool (<= 0 _X8_))
(define-fun .def_1252 () Bool (not env))
(define-fun .def_1254 () Bool (or .def_1252 .def_1253))
(define-fun .def_1255 () Bool (= _OK_ .def_1254))
(define-fun .def_1246 () Bool (= call_rtp.ite30 call_rtp.ite29))
(define-fun .def_1247 () Bool (or param_e07 .def_1246))
(define-fun .def_1242 () Bool (= call_rtp.ite30 call_rtp.ite25))
(define-fun .def_1243 () Bool (or .def_1238 .def_1242))
(define-fun .def_1237 () Bool (= call_rtp.ite48 call_rtp.ite41))
(define-fun .def_1239 () Bool (or .def_1237 .def_1238))
(define-fun .def_1233 () Bool (= call_rtp.ite48 call_rtp.ite47))
(define-fun .def_1235 () Bool (or .def_1233 param_e07))
(define-fun .def_1240 () Bool (and .def_1235 .def_1239))
(define-fun .def_1244 () Bool (and .def_1240 .def_1243))
(define-fun .def_1248 () Bool (and .def_1244 .def_1247))
(define-fun .def_1228 () Bool (= call_rtp.ite49 call_rtp.ite40))
(define-fun .def_1229 () Bool (or .def_1130 .def_1228))
(define-fun .def_1225 () Bool (= call_rtp.ite49 call_rtp.ite48))
(define-fun .def_1226 () Bool (or param_e05 .def_1225))
(define-fun .def_1230 () Bool (and .def_1226 .def_1229))
(define-fun .def_1220 () Bool (= call_rtp.ite31 call_rtp.ite24))
(define-fun .def_1221 () Bool (or .def_1124 .def_1220))
(define-fun .def_1217 () Bool (= call_rtp.ite31 call_rtp.ite30))
(define-fun .def_1218 () Bool (or param_e06 .def_1217))
(define-fun .def_1222 () Bool (and .def_1218 .def_1221))
(define-fun .def_1231 () Bool (and .def_1222 .def_1230))
(define-fun .def_1249 () Bool (and .def_1231 .def_1248))
(define-fun .def_1256 () Bool (and .def_1249 .def_1255))
(define-fun .def_1260 () Bool (and .def_1256 .def_1259))
(define-fun .def_1264 () Bool (and .def_1260 .def_1263))
(define-fun .def_1268 () Bool (and .def_1264 .def_1267))
(define-fun .def_1272 () Bool (and .def_1268 .def_1271))
(define-fun .def_1289 () Bool (and .def_1272 .def_1288))
(define-fun .def_1293 () Bool (and .def_1289 .def_1292))
(define-fun .def_1297 () Bool (and .def_1293 .def_1296))
(define-fun .def_1301 () Bool (and .def_1297 .def_1300))
(define-fun .def_1304 () Bool (and .def_1301 .def_1303))
(define-fun .def_1308 () Bool (and .def_1304 .def_1307))
(define-fun .def_1312 () Bool (and .def_1308 .def_1311))
(define-fun .def_1315 () Bool (and .def_1312 .def_1314))
(define-fun .def_1323 () Bool (and .def_1315 .def_1322))
(define-fun .def_1331 () Bool (and .def_1323 .def_1330))
(define-fun .def_1338 () Bool (and .def_1331 .def_1337))
(define-fun .def_1347 () Bool (and .def_1338 .def_1346))
(define-fun .def_1364 () Bool (and .def_1347 .def_1363))
(define-fun .def_1373 () Bool (and .def_1364 .def_1372))
(define-fun .def_1390 () Bool (and .def_1373 .def_1389))
(define-fun .def_1400 () Bool (and .def_1390 .def_1399))
(define-fun .def_1402 () Bool (and .def_1400 .def_1401))
(define-fun .def_1404 () Bool (and .def_1402 .def_1403))
(define-fun .def_1406 () Bool (and .def_1404 .def_1405))
(define-fun .def_1408 () Bool (and .def_1406 .def_1407))
(define-fun .def_1410 () Bool (and .def_1408 .def_1409))
(define-fun .def_1412 () Bool (and .def_1410 .def_1411))
(define-fun .def_1414 () Bool (and .def_1412 .def_1413))
(define-fun .def_1416 () Bool (and .def_1414 .def_1415))
(define-fun .def_1418 () Bool (and .def_1416 .def_1417))
(define-fun .def_1530 () Bool (and .def_1418 .def_1529))
(define-fun .def_1532 () Bool (and .def_1530 .def_1531))
(define-fun .def_1208 () Bool (<= 32767 _X8_))
(define-fun .def_1209 () Bool (not .def_1208))
(define-fun .def_1211 () Bool (and .def_1209 call_excludes12.excludes))
(define-fun .def_1213 () Bool (= .def_1211 call_Sofar.flby))
(define-fun .def_1205 () Bool (= call_rtp.flby7 0))
(define-fun .def_1202 () Bool (= call_rtp.flby6 0))
(define-fun .def_1199 () Bool (= call_rtp.flby5 0))
(define-fun .def_1196 () Bool (= call_rtp.flby4 0))
(define-fun .def_1193 () Bool (= call_rtp.flby3 0))
(define-fun .def_1190 () Bool (= call_rtp.flby2 0))
(define-fun .def_1187 () Bool (= call_rtp.flby 1))
(define-fun .def_1184 () Bool (= call_rtp.flby9 0))
(define-fun .def_1181 () Bool (= call_rtp.flby8 0))
(define-fun .def_1175 () Bool (= call_rtp.ite11 call_rtp.ite12))
(define-fun .def_1178 () Bool (or .def_1175 .def_1177))
(define-fun .def_1169 () Bool (= call_rtp.ite44 call_rtp.ite45))
(define-fun .def_1170 () Bool (or .def_1165 .def_1169))
(define-fun .def_1163 () Bool (= call_rtp.ite6 call_rtp.ite7))
(define-fun .def_1166 () Bool (or .def_1163 .def_1165))
(define-fun .def_1171 () Bool (and .def_1166 .def_1170))
(define-fun .def_1156 () Bool (= call_rtp.ite3 call_rtp.ite2))
(define-fun .def_1159 () Bool (or .def_1156 .def_1158))
(define-fun .def_1149 () Bool (= call_rtp.ite37 call_rtp.ite38))
(define-fun .def_1152 () Bool (or .def_1149 .def_1151))
(define-fun .def_1142 () Bool (= call_rtp.ite33 call_rtp.ite34))
(define-fun .def_1145 () Bool (or .def_1142 .def_1144))
(define-fun .def_1135 () Bool (= call_rtp.ite27 call_rtp.ite28))
(define-fun .def_1138 () Bool (or .def_1135 .def_1137))
(define-fun .def_1128 () Bool (= call_rtp.ite16 call_rtp.ite17))
(define-fun .def_1131 () Bool (or .def_1128 .def_1130))
(define-fun .def_1122 () Bool (= call_rtp.ite21 call_rtp.ite22))
(define-fun .def_1125 () Bool (or .def_1122 .def_1124))
(define-fun .def_1132 () Bool (and .def_1125 .def_1131))
(define-fun .def_1139 () Bool (and .def_1132 .def_1138))
(define-fun .def_1146 () Bool (and .def_1139 .def_1145))
(define-fun .def_1153 () Bool (and .def_1146 .def_1152))
(define-fun .def_1160 () Bool (and .def_1153 .def_1159))
(define-fun .def_1172 () Bool (and .def_1160 .def_1171))
(define-fun .def_1179 () Bool (and .def_1172 .def_1178))
(define-fun .def_1182 () Bool (and .def_1179 .def_1181))
(define-fun .def_1185 () Bool (and .def_1182 .def_1184))
(define-fun .def_1188 () Bool (and .def_1185 .def_1187))
(define-fun .def_1191 () Bool (and .def_1188 .def_1190))
(define-fun .def_1194 () Bool (and .def_1191 .def_1193))
(define-fun .def_1197 () Bool (and .def_1194 .def_1196))
(define-fun .def_1200 () Bool (and .def_1197 .def_1199))
(define-fun .def_1203 () Bool (and .def_1200 .def_1202))
(define-fun .def_1206 () Bool (and .def_1203 .def_1205))
(define-fun .def_1214 () Bool (and .def_1206 .def_1213))
(define-fun .def_1533 () Bool (and .def_1214 .def_1532))
(assert .def_1533)
